Maximize
obj:  10 x1 + 12 x2 + 17 x3 + 8 x4 + 12 y2 + 17 y3 + 8 y4

Subject To
w1: 0.1 x1 + 0.15 x2 + 0.15 y2 + 0.5 x3 + 0.5 y3 + 0.05 x4 + 0.05 y4 <= 50
w2: x2 + y2 - 2 x3 - 2 y3 = 0
w3: 10 x1 + 12 x2 + 13 x3 + 8 x4 <= 1995
w4: 27 x1 + 19 y2 + 33 y3 + 23 y4 <= 1953

Bounds
x1 => 0
x2 => 0
x3 => 0
x4 => 0
y2 => 0
y3 => 0
y4 => 0

Generals
x1
x2
x3
x4
y2
y3
y4

End